Minimize
  - 18 y_0 - 18 y_1 - 18 y_2 - 20 y_3 - 23 y_4 - 18 y_5 - 26 y_6 - 24 y_7
   - 33 y_8 - 13 y_9 - 16 y_10 - 23 y_11 - 26 y_12 - 27 y_13 - 27 y_14
   - 28 y_15 - 23 y_16 - 22 y_17 - 4 y_18 - 22 y_19 - 25 y_20 - 16 y_21
   - 29 y_22 - 21 y_23 - 22 y_24 - 18 y_25 - 14 y_26 - 24 y_27 - 11 y_28
   - 22 y_29 - 11 y_30 - 30 y_31 - 14 y_32 - 24 y_33 - 27 y_34 - 21 y_35
   - 20 y_36 - 22 y_37 - 24 y_38 - 10 y_39 - 28 y_40 - 16 y_42 - 23 y_43
   - 30 y_44 - 23 y_45 - 16 y_46 - 14 y_47 - 19 y_48 - 22 y_49
   + 1025 Constant
Subject To
 c_0: y_34 = 1
 c_1_0: y_0 >= 1
 c_1_1: y_1 >= 1
 c_1_2: y_2 >= 1
 c_1_3: y_3 + y_48 >= 1
 c_1_4: y_4 >= 1
 c_1_5: y_5 >= 1
 c_1_6: y_6 >= 1
 c_1_7: y_7 + y_27 + y_38 >= 1
 c_1_8: y_8 >= 1
 c_1_9: y_9 >= 1
 c_1_10: y_10 + y_46 >= 1
 c_1_11: y_11 + y_29 + y_49 >= 1
 c_1_12: y_12 >= 1
 c_1_13: y_13 >= 1
 c_1_14: y_14 >= 1
 c_1_15: y_15 >= 1
 c_1_16: y_16 + y_20 >= 1
 c_1_17: y_17 >= 1
 c_1_18: y_18 >= 1
 c_1_19: y_19 >= 1
 c_1_20: y_16 + y_20 >= 1
 c_1_21: y_21 >= 1
 c_1_22: y_22 >= 1
 c_1_23: y_23 >= 1
 c_1_24: y_24 + y_45 >= 1
 c_1_25: y_25 >= 1
 c_1_26: y_26 >= 1
 c_1_27: y_7 + y_27 + y_38 >= 1
 c_1_28: y_28 + y_39 >= 1
 c_1_29: y_11 + y_29 + y_37 + y_49 >= 1
 c_1_30: y_30 >= 1
 c_1_31: y_31 >= 1
 c_1_32: y_32 + y_42 >= 1
 c_1_33: y_33 >= 1
 c_1_34: y_34 >= 1
 c_1_35: y_35 >= 1
 c_1_36: y_36 >= 1
 c_1_37: y_29 + y_37 >= 1
 c_1_38: y_7 + y_27 + y_38 >= 1
 c_1_39: y_28 + y_39 >= 1
 c_1_40: y_40 >= 1
 c_1_41: y_41 >= 1
 c_1_42: y_32 + y_42 >= 1
 c_1_43: y_43 >= 1
 c_1_44: y_44 >= 1
 c_1_45: y_24 + y_45 >= 1
 c_1_46: y_10 + y_46 >= 1
 c_1_47: y_47 >= 1
 c_1_48: y_3 + y_48 >= 1
 c_1_49: y_11 + y_29 + y_49 >= 1
Bounds
 Constant = 1
Binaries
 y_0 y_1 y_2 y_3 y_4 y_5 y_6 y_7 y_8 y_9 y_10 y_11 y_12 y_13 y_14 y_15 y_16
 y_17 y_18 y_19 y_20 y_21 y_22 y_23 y_24 y_25 y_26 y_27 y_28 y_29 y_30 y_31
 y_32 y_33 y_34 y_35 y_36 y_37 y_38 y_39 y_40 y_41 y_42 y_43 y_44 y_45 y_46
 y_47 y_48 y_49
End
